29
 1 58 2
 2 270 9
 3 62 2
 4 192 6
 5 363 11
 6 136 4
 7 525 15
 8 540 15
 9 740 20
 10 228 6
 11 429 11
 12 440 11
 13 615 15
 14 588 14
 15 516 12
 16 44 1
 17 45 1
 18 506 11
 19 376 8
 20 768 16
 21 98 2
 22 300 6
 23 204 4
 24 260 5
 25 795 15
 26 378 7
 27 715 13
 28 112 2
 29 228 4
87